4 5 1.0 0 0 0 0 4100 4100
0 0 1 1 0
0 0 5 -1 1 3 5 -1 1 1 20 -1 1 4 5 -1 1 5 5 -1 1 2 18 
0 0 5 -1 1 2 11 -1 1 1 13 -1 1 3 16 -1 1 4 11 -1 1 5 7 
0 0 5 -1 1 5 14 -1 1 1 5 -1 1 3 9 -1 1 2 20 -1 1 4 14 
0 0 5 -1 1 5 6 -1 1 1 12 -1 1 2 9 -1 1 3 16 -1 1 4 17 
